NAME : XML100_3133_10
DIMENSION : 101
NB_CLUSTERS : 10
CLUSTERING_ALG : KMedoids
CLUSTERING_PARAMS : k(9)
CLUSTERS
1 0
2 3 8 11 40 43 45 47 55 62 67 72 73 84 91 97
3 5 20 23 46 50 52 65 93
4 13 15 24 27 28 49 63 69 76 90
5 1 16 29 34 38 41 54 61 64 80 100
6 7 22 39 74 79 89
7 17 19 26 33 35 57 58 75 78 81 85 87 95 96 99
8 14 18 25 32 42 59 70 71 77 98
9 6 9 10 12 31 37 48 51 56 60 66 68 83 86
10 2 4 21 30 36 44 53 82 88 92 94
EOF